(assert (ite (<= (+ 0 (+ 1 (+ r1 (+ 1 r2)))) 0) (and (= r3 (+ 0 (+ 1 (+ r2 (+ 1 r4))))) (= (select r5 2) r3)) (ite (> (+ 0 (+ 1 (+ r1 (+ 1 r2)))) 0) (and (= r3 (+ 0 (+ 1 (+ r1 (+ 1 r7))))) (= (select r5 r2) r3)) (= 1 1))))